12 66
1 2 1
1 3 3
1 4 2
1 5 4
1 6 4
1 7 5
1 8 3
1 9 1
1 10 1
1 11 1
1 12 3
2 3 5
2 4 1
2 5 3
2 6 4
2 7 5
2 8 5
2 9 3
2 10 3
2 11 3
2 12 4
3 4 5
3 5 2
3 6 2
3 7 5
3 8 1
3 9 5
3 10 5
3 11 2
3 12 4
4 5 5
4 6 4
4 7 4
4 8 5
4 9 3
4 10 2
4 11 1
4 12 2
5 6 3
5 7 2
5 8 5
5 9 5
5 10 4
5 11 2
5 12 4
6 7 4
6 8 5
6 9 1
6 10 1
6 11 5
6 12 3
7 8 4
7 9 3
7 10 2
7 11 1
7 12 1
8 9 3
8 10 5
8 11 1
8 12 1
9 10 1
9 11 5
9 12 3
10 11 4
10 12 1
11 12 4
